
%FILE DATA:	Soccer Computational Problem for MiniZinc Models	%
%AUTHOR:	Jack Wall	%
%CONTACT:  	116397063@umail.ucc.ie			%
%LAST UPDATE:	03/09/2020, 15:15:29						%
%DESCRIPTION: 	96 games played with 36 games left				%


n=12; %number of teams

%Games to play
games=[|10,5|1,2|3,1|4,8|11,5|7,5|10,11|2,1|4,10|1,9|10,9|9,6|12,5|6,8|6,5|9,10|5,7|2,7|8,9|10,2|8,10|3,8|9,5|9,1|10,6|12,3|12,9|8,4|7,6|10,3|10,7|3,4|5,3|7,9|2,6|12,11|];

%Initial points
iPoints=[20,29,19,24,11,17,23,25,14,23,23,30];

%POSITION CONSTRAINTS
% [|teamID, operator, position|...]
% operators index:
%  1 for =  operator
%  2 for >  operator
%  3 for >= operator
%  4 for <  operator
%  5 for <= operator
positionConstraints=[|10,3,1|12,3,2|2,4,4|8,5,4|];